
m = 12;

n = 12;

Amin = 57;

Amax = 72;

B = 2736;

lambda = 20.00;

c = 
[[5,3,10,8,3,2,2,6,3,7,5,4],
[2,8,7,6,5,4,4,6,3,6,3,5],
[6,7,4,4,7,10,7,8,9,6,5,8],
[4,6,10,5,9,3,7,9,9,4,3,2],
[4,5,6,6,7,5,9,9,2,3,3,5],
[9,6,2,5,8,4,2,2,6,9,5,4],
[10,9,9,8,2,8,8,4,3,3,8,6],
[7,5,5,5,4,4,6,2,8,4,3,3],
[6,10,3,10,8,5,10,7,3,7,5,3],
[4,9,3,3,2,8,8,5,2,9,6,4],
[2,10,2,8,3,10,9,6,9,9,3,7],
[3,10,3,4,4,4,3,4,3,4,6,10]];
